%mem=15GB
%nprocshared=6
#p B3LYP/6-31G(d) opt=tight int=ultrafine freq

using B3LYP/6-31G(d) to do opt and freq calc.

0 1
C	0.000004	1.518469	-1.254742
H	-0.349202	1.042219	-2.175878
H	1.085023	1.664691	-1.342941
H	-0.462224	2.511330	-1.204123
C	-0.342970	0.696632	-0.000002
H	-1.431421	0.522513	-0.000006
C	0.342970	-0.696632	-0.000002
H	1.431421	-0.522513	-0.000006
C	0.000004	-1.518461	1.254744
H	-1.085015	-1.664687	1.342947
H	0.462235	-2.511321	1.204131
H	0.349211	-1.042203	2.175875
C	-0.000004	1.518461	1.254744
H	-0.349211	1.042203	2.175875
H	1.085015	1.664687	1.342947
H	-0.462235	2.511321	1.204131
C	-0.000004	-1.518469	-1.254742
H	-1.085023	-1.664691	-1.342941
H	0.349202	-1.042219	-2.175878
H	0.462224	-2.511330	-1.204123





