%mem=15GB
%nprocshared=6
#p M062X/def2TZVP

using B3LYP/6-31G(d) to do opt and freq calc.

0 2
C	-3.180533	-0.240811	-0.088982
H	-3.288305	-0.981452	0.713134
H	-3.228892	-0.779262	-1.043536
H	-4.046036	0.429958	-0.041029
C	-1.864520	0.532157	0.044476
H	-1.802380	1.288764	-0.750788
H	-1.860697	1.088272	0.992952
C	-0.625447	-0.368949	-0.017634
H	-0.623023	-0.924949	-0.965804
H	-0.686299	-1.125452	0.778802
C	0.699200	0.398591	0.118919
H	0.672150	0.980309	1.062591
H	0.768713	1.159445	-0.675533
C	1.912503	-0.474433	0.084117
H	1.825624	-1.486087	0.478057
C	3.277760	0.087622	-0.136458
H	3.667851	0.605840	0.759418
H	4.004820	-0.692518	-0.389848
H	3.282702	0.832073	-0.945046





