%mem=15GB
%nprocshared=6
#p M062X/def2TZVP

using B3LYP/6-31G(d) to do opt and freq calc.

0 2
C	2.156743	-1.096862	0.031324
H	1.908094	-2.154489	0.042376
H	3.204235	-0.825527	0.127352
C	1.124076	-0.070398	-0.312310
H	1.054587	-0.004423	-1.417474
C	-0.273825	-0.500717	0.191156
H	-0.267114	-0.511970	1.291026
H	-0.449140	-1.540413	-0.121949
C	-1.440067	0.362815	-0.307507
H	-1.412099	0.408600	-1.405939
H	-1.320501	1.395720	0.044250
C	-2.805210	-0.165939	0.145952
H	-2.874892	-0.195980	1.240350
H	-3.621560	0.466122	-0.222015
H	-2.979171	-1.184177	-0.223416
C	1.539004	1.323218	0.195449
H	0.848426	2.102499	-0.143006
H	1.565680	1.344188	1.291906
H	2.539131	1.587146	-0.167839





