%mem=15GB
%nprocshared=6
#p PM6 opt 

using PM6 to do opt and freq calc.

0 1
 C                 -3.54299354    0.15923567    0.00000000
 H                 -3.18633911   -0.84957434    0.00000000
 H                 -3.18632070    0.66363386   -0.87365150
 H                 -4.61299354    0.15924885    0.00000000
 C                 -3.02965132    0.88519194    1.25740497
 H                 -3.38470788    1.89456496    1.25642758
 H                 -3.38792028    0.38192394    2.13105517
 C                 -1.48965392    0.88273504    1.25881307
 H                 -1.13459805   -0.12663778    1.26016721
 C                 -0.97631071    1.60916084    2.51594643
 H                 -1.33464752    1.10626723    3.38978438
 H                 -1.33129857    2.61855752    2.51455102
 C                  0.56368646    1.60660065    2.51741431
 H                  0.92202241    2.10948667    1.64357164
 H                  0.92036001    2.11133235    3.39087288
 H                  0.91867455    0.59720406    2.51881828
 C                 -0.97401538    1.60659446    0.00113885
 H                 -1.33059236    1.10180064   -0.87232326
 H                 -1.32916847    2.61593300   -0.00027453
 H                  0.09598291    1.60499082    0.00217616





