%mem=15GB
%nprocshared=6
#p M062X/def2TZVP

using B3LYP/6-31G(d) to do opt and freq calc.

0 2
C	-1.597662	0.000029	-0.950896
H	-1.590231	-0.886307	-1.597604
H	-1.590227	0.886395	-1.597562
H	-2.544012	0.000020	-0.395923
C	-0.395425	0.000000	0.010344
C	0.917705	0.000023	-0.850119
H	0.876723	0.881944	-1.506154
H	0.876722	-0.881861	-1.506205
C	2.203158	-0.000003	-0.094503
H	2.667472	-0.926387	0.228941
H	2.667502	0.926353	0.228976
C	-0.446346	1.258765	0.894282
H	0.393767	1.285707	1.597415
H	-0.406674	2.171907	0.286758
H	-1.374253	1.288040	1.478754
C	-0.446359	-1.258811	0.894214
H	-1.374272	-1.288109	1.478676
H	-0.406687	-2.171921	0.286643
H	0.393747	-1.285797	1.597355





