%mem=15GB
%nprocshared=6
#p M062X/def2TZVP

using B3LYP/6-31G(d) to do opt and freq calc.

0 1
C	-1.414227	2.905083	0.000000
H	-0.900497	3.301499	-0.884602
H	-0.900497	3.301499	0.884602
H	-2.434236	3.306282	0.000000
C	-1.414227	1.372954	0.000000
H	-1.965398	1.006883	0.877995
H	-1.965398	1.006883	-0.877995
C	-0.004893	0.766918	0.000000
H	0.546827	1.134100	0.878477
H	0.546827	1.134100	-0.878477
C	0.004893	-0.766918	0.000000
H	-0.546827	-1.134100	-0.878477
H	-0.546827	-1.134100	0.878477
C	1.414227	-1.372954	0.000000
H	1.965398	-1.006883	0.877995
H	1.965398	-1.006883	-0.877995
C	1.414227	-2.905083	0.000000
H	0.900497	-3.301499	-0.884602
H	2.434236	-3.306282	0.000000
H	0.900497	-3.301499	0.884602





