%mem=15GB
%nprocshared=6
#p M062X/def2TZVP

using B3LYP/6-31G(d) to do opt and freq calc.

0 2
C	1.984485	-1.209496	-0.026757
H	1.581112	-2.143232	-0.433910
H	2.115342	-1.345317	1.054669
H	2.977000	-1.046681	-0.463558
C	1.047557	-0.024592	-0.317217
H	0.948389	0.073528	-1.410163
C	-0.321046	-0.251683	0.255980
H	-0.384653	-0.713608	1.242751
C	-1.545103	0.423240	-0.276820
H	-1.475885	0.500742	-1.372645
H	-1.596309	1.470748	0.079389
C	-2.852639	-0.283032	0.111021
H	-2.957670	-0.342641	1.201088
H	-3.725193	0.252724	-0.279445
H	-2.877814	-1.305994	-0.281059
C	1.670721	1.296997	0.198630
H	1.031092	2.156431	-0.031253
H	1.809083	1.261978	1.286274
H	2.651655	1.472717	-0.261158





