%mem=15GB
%nprocshared=6
#p PM6 opt 

using PM6 to do opt and freq calc.

0 1
C    2.0074    -2.5447    0.5794
H    2.8427    -1.8653    0.8649
H    2.1312    -2.8488    -0.485
H    2.0552    -3.4552    1.2185
C    0.6634    -1.8488    0.7801
H    -0.1427    -2.5733    0.5235
H    0.563    -1.5734    1.8556
C    0.5301    -0.5905    -0.0896
H    0.5708    -0.8754    -1.1669
H    1.3989    0.0773    0.1178
C    -0.7477    0.2201    0.174
H    -0.6653    1.1716    -0.4018
H    -0.8018    0.4821    1.2565
C    -2.0399    -0.4945    -0.247
H    -2.1922    -1.4018    0.381
H    -1.9632    -0.8105    -1.3132
C    -3.2667    0.4007    -0.0916
H    -3.1726    1.3037    -0.737
H    -4.1791    -0.1605    -0.3959
H    -3.3815    0.7202    0.9693





