%mem=15GB
%nprocshared=6
#p M062X/def2TZVP

using B3LYP/6-31G(d) to do opt and freq calc.

0 2
C	-1.538732	-0.634720	-0.874783
H	-1.607439	-1.716443	-0.705482
H	-1.352578	-0.474173	-1.943079
H	-2.513367	-0.195137	-0.629323
C	-0.417725	-0.010232	-0.017414
C	0.892837	-0.685933	-0.349308
H	0.848588	-1.754961	-0.553989
C	2.233717	-0.086683	-0.071039
H	2.405773	0.082765	1.007522
H	3.039766	-0.739053	-0.422886
H	2.363974	0.891924	-0.554102
C	-0.359121	1.507867	-0.288766
H	0.391302	2.003717	0.337269
H	-0.112940	1.713028	-1.337393
H	-1.328324	1.973419	-0.072924
C	-0.749202	-0.239519	1.482656
H	-1.704639	0.232751	1.747279
H	-0.827147	-1.309228	1.709411
H	0.026395	0.186706	2.129626





