%mem=15GB
%nprocshared=6
#p PM6 opt 

using PM6 to do opt and freq calc.

0 1
C    0.4792    -0.9037    1.2989
H    -0.3375    -1.6601    1.3152
H    0.384    -0.2641    2.2065
H    1.4468    -1.4538    1.3606
C    0.4189    -0.0435    0.0168
C    -0.8617    0.8424    -0.0126
H    -0.8387    1.4881    -0.9221
H    -0.855    1.5231    0.8715
C    -2.2106    0.115    -0.0111
H    -2.3296    -0.5069    0.9034
H    -3.0313    0.8678    -0.0243
H    -2.3192    -0.5274    -0.9128
C    1.6497    0.8929    0.0031
H    1.6571    1.5238    -0.9159
H    1.6422    1.5698    0.8887
H    2.5982    0.3075    0.0258
C    0.4965    -0.9635    -1.222
H    1.4629    -1.5188    -1.2418
H    -0.3229    -1.7172    -1.2156
H    0.4181    -0.3672    -2.1602





