%mem=15GB
%nprocshared=6
#p M062X/def2TZVP

using B3LYP/6-31G(d) to do opt and freq calc.

0 2
C	2.230588	-0.944180	0.053833
H	2.042267	-1.932044	-0.385737
H	2.297797	-1.063729	1.141795
H	3.203696	-0.591607	-0.305151
C	1.101013	0.049071	-0.321328
H	1.075669	0.102896	-1.421427
C	-0.266225	-0.478830	0.160181
H	-0.269761	-0.500843	1.261127
H	-0.380253	-1.523156	-0.164821
C	-1.465735	0.337356	-0.337589
H	-1.459791	0.350862	-1.437038
H	-1.349500	1.382697	-0.021858
C	-2.809453	-0.205401	0.159063
H	-2.859805	-0.197986	1.255042
H	-3.646801	0.394219	-0.216080
H	-2.967157	-1.239997	-0.170599
C	1.396740	1.416930	0.210491
H	1.113232	1.685073	1.225647
H	2.078837	2.083936	-0.308804





