%chk=E:\hetanjin\GithubFiles\DBGCWebapp\demoForLocal\python\Gjfs\banana_074.chk
# hf/3-21g geom=connectivity

Title Card Required

0 2
 C                 -4.14965994   -1.66666664    0.00000000
 H                 -3.79300551   -2.67547664    0.00000000
 H                 -3.79298710   -1.16226845   -0.87365150
 H                 -5.21965994   -1.66665346    0.00000000
 C                 -3.63631772   -0.94071037    1.25740497
 H                 -3.99137428    0.06866265    1.25642758
 H                 -3.99458668   -1.44397837    2.13105517
 C                 -2.09632032   -0.94316727    1.25881307
 H                 -1.73805198   -0.44022598    0.38497449
 H                 -1.74126445   -1.95254009    1.26016721
 C                 -1.58297710   -0.21674147    2.51594643
 H                 -1.94131391   -0.71963508    3.38978438
 H                 -1.93796497    0.79265521    2.51455102
 C                 -0.04297993   -0.21930166    2.51741431
 H                  0.31535602    0.28358436    1.64357164
 H                  0.31200816   -1.22869825    2.51881828
 C                  0.47036331    0.50713462    3.77454161
 H                  0.11202506    0.00424933    4.64838375
 H                  0.11537690    1.51653181    3.77313689
 C                  2.01036047    0.50457223    3.77601076
 H                  2.36869787    1.00745876    2.90216898
 H                  2.36534712   -0.50482487    3.77741384
 C                  2.52370371    1.23100630    5.03313933
 H                  2.16536690    0.72811845    5.90698059
 H                  2.16871586    2.24040298    5.03173727
 C                  4.06370088    1.22844611    5.03460721
 H                  4.42203684    1.73133518    4.16076631
 C                  4.57704411    1.95487799    6.29173706
 H                  4.21870874    1.45198761    7.16557744
 H                  5.64704215    1.95310068    6.29275606
 H                  4.22205481    2.96427417    6.29033763

 1 2 1.0 3 1.0 4 1.0 5 1.0
 2
 3
 4
 5 6 1.0 7 1.0 8 1.0
 6
 7
 8 9 1.0 10 1.0 11 1.0
 9
 10
 11 12 1.0 13 1.0 14 1.0
 12
 13
 14 15 1.0 16 1.0 17 1.0
 15
 16
 17 18 1.0 19 1.0 20 1.0
 18
 19
 20 21 1.0 22 1.0 23 1.0
 21
 22
 23 24 1.0 25 1.0 26 1.0
 24
 25
 26 27 1.0 28 1.0
 27
 28 29 1.0 30 1.0 31 1.0
 29
 30
 31

