%chk=E:\hetanjin\GithubFiles\DBGCWebapp\demoForLocal\python\Gjfs\banana_069.chk
# hf/3-21g geom=connectivity

Title Card Required

0 1
 C                 -4.52380960    0.78231291    0.00000000
 H                 -4.16713676    1.28671110    0.87365150
 H                 -4.16713676    1.28671110   -0.87365150
 H                 -5.59380960    0.78232610    0.00000000
 C                 -4.01049389   -0.66961924    0.00000000
 H                 -4.36716717   -1.17401813   -0.87365092
 C                 -2.47049389   -0.66963744   -0.00000123
 H                 -2.11382230   -0.16693465   -0.87462989
 H                 -2.11382035   -0.16354475    0.87266948
 C                 -1.95717817   -2.12156686    0.00281556
 H                 -2.31421775   -2.62778823   -0.86963081
 H                 -2.31348424   -2.62413963    0.87766789
 C                 -0.41717831   -2.12158636    0.00216962
 H                 -0.06013958   -1.61534723    0.87460603
 H                 -0.06087201   -1.61903095   -0.87269259
 C                  0.09613742   -3.57351572    0.00501496
 H                 -0.26090518   -4.07975531   -0.86741960
 H                 -0.26016562   -4.07607022    0.87987902
 C                  1.63613729   -3.57353523    0.00436369
 H                  1.99317904   -3.06730097    0.87680168
 H                  1.99244056   -3.07097495   -0.87049695
 C                  2.14945301   -5.02546461    0.00719915
 H                  1.79241151   -5.53169789   -0.86523952
 H                  1.79314886   -5.52802545    0.88205912
 C                  3.68945287   -5.02548412    0.00654983
 H                  4.04649352   -4.51925294    0.87899007
 H                  4.04610730   -6.03429220    0.00851681
 H                  4.04575725   -4.52292075   -0.86830859
 C                 -4.52383556   -1.39557532    1.25740530
 H                 -4.50066928   -2.45267432    1.09337780
 H                 -3.89930940   -1.15019481    2.09086525
 H                 -5.52820035   -1.08825465    1.46162423

 1 2 1.0 3 1.0 4 1.0 5 1.0
 2
 3
 4
 5 6 1.0 7 1.0 29 1.0
 6
 7 8 1.0 9 1.0 10 1.0
 8
 9
 10 11 1.0 12 1.0 13 1.0
 11
 12
 13 14 1.0 15 1.0 16 1.0
 14
 15
 16 17 1.0 18 1.0 19 1.0
 17
 18
 19 20 1.0 21 1.0 22 1.0
 20
 21
 22 23 1.0 24 1.0 25 1.0
 23
 24
 25 26 1.0 27 1.0 28 1.0
 26
 27
 28
 29 30 1.0 31 1.0 32 1.0
 30
 31
 32

