%chk=E:\hetanjin\GithubFiles\DBGCWebapp\demoForLocal\python\Gjfs\banana_010.chk
# hf/3-21g geom=connectivity

Title Card Required

0 1
 C                 -1.80272112    1.76870746    0.00000000
 C                 -1.12744681    2.94368475    0.00000000
 H                 -1.66061056    3.87138967    0.00000000
 H                 -0.05744681    2.94368475    0.00000000
 C                 -3.34272112    1.76870746    0.00000000
 H                 -3.69938747    0.75990357   -0.00195626
 H                 -3.69938747    2.27141545    0.87462780
 H                 -3.69938797    2.27480337   -0.87267157
 C                 -1.03536395    0.43350598    0.00000000
 H                 -1.30172624   -0.13094905    0.86910393
 H                 -1.28817296   -0.12315981   -0.87812915
 C                  0.47921147    0.71188087    0.01298956
 H                  0.73130268    1.27256018    0.88876849
 H                  1.01233626   -0.21583451    0.01769491
 H                  0.74632988    1.27233318   -0.85846953

 1 2 2.0 5 1.0 9 1.0
 2 3 1.0 4 1.0
 3
 4
 5 6 1.0 7 1.0 8 1.0
 6
 7
 8
 9 10 1.0 11 1.0 12 1.0
 10
 11
 12 13 1.0 14 1.0 15 1.0
 13
 14
 15

