%chk=E:\hetanjin\GithubFiles\DBGCWebapp\demoForLocal\python\Gjfs\banana_014.chk
# hf/3-21g geom=connectivity

Title Card Required

0 1
 C                 -0.81632654   -0.40816326    0.00000000
 C                 -2.35632654   -0.40814428    0.00000000
 H                 -2.71298046    0.60066590    0.00001950
 H                 -2.71299911   -0.91252612   -0.87366106
 H                 -2.71299961   -0.91255947    0.87364160
 C                 -0.30301083   -1.86009541    0.00000000
 H                 -0.65968591   -2.36449440   -0.87365013
 H                  0.76698917   -1.86010806   -0.00000236
 H                 -0.65968149   -2.36449337    0.87365253
 C                 -0.30298433    0.31779301    1.25740497
 H                  0.76701386    0.31608595    1.25838332
 H                 -0.65804089    1.32716603    1.25642758
 H                 -0.66125329   -0.18547498    2.13105517
 C                 -0.30298433    0.31779301   -1.25740497
 H                  0.76701566    0.31791105   -1.25732887
 H                 -0.65953374   -0.18669334   -2.13105595
 H                 -0.65976223    1.32655935   -1.25748121

 1 2 1.0 6 1.0 10 1.0 14 1.0
 2 3 1.0 4 1.0 5 1.0
 3
 4
 5
 6 7 1.0 8 1.0 9 1.0
 7
 8
 9
 10 11 1.0 12 1.0 13 1.0
 11
 12
 13
 14 15 1.0 16 1.0 17 1.0
 15
 16
 17

