%chk=E:\hetanjin\GithubFiles\DBGCWebapp\demoForLocal\python\Gjfs\banana_063.chk
# hf/3-21g geom=connectivity

Title Card Required

0 1
 C                 -2.10884357   -0.37414965    0.00000000
 C                 -3.64884357   -0.37413068    0.00000000
 H                 -4.00549749    0.63467761    0.00195626
 H                 -4.00551612   -0.87683428   -0.87462780
 H                 -4.00551666   -0.88022220    0.87267157
 C                 -1.59552786   -1.82608181    0.00000000
 H                 -1.95250912   -2.33058904   -0.87346255
 H                 -0.52552793   -1.82609448   -0.00037739
 H                 -1.95189228   -2.33037150    0.87383998
 C                 -1.59550136    0.35180662   -1.25740497
 H                 -1.95236443    1.36054282   -1.25753276
 H                 -0.52550138    0.35201440   -1.25727707
 H                 -1.95196558   -0.15273942   -2.13105624
 C                 -1.59550136    0.35180662    1.25740497
 H                 -1.95233541   -0.15247845    2.13105594
 H                 -1.95199461    1.36067358    1.25730691
 C                 -0.05550138    0.35154198    1.25754632
 H                  0.30133177    0.85544483    0.38367447
 H                  0.30099206   -0.65732477    1.25808546
 C                  0.45784096    1.07804776    2.51463383
 H                  0.10092498    0.57420259    3.38850512
 H                  0.10142974    2.08694354    2.51404463
 C                  1.99784089    1.07765800    2.51484751
 H                  2.35475603    1.58152433    1.64098808
 H                  2.35425235    0.06876229    2.51541208
 C                  2.51118323    1.80413290    3.77195286
 H                  2.15426724    1.30026627    4.64581178
 H                  3.58118318    1.80386210    3.77210132
 H                  2.15477200    2.81302869    3.77138844

 1 2 1.0 6 1.0 10 1.0 14 1.0
 2 3 1.0 4 1.0 5 1.0
 3
 4
 5
 6 7 1.0 8 1.0 9 1.0
 7
 8
 9
 10 11 1.0 12 1.0 13 1.0
 11
 12
 13
 14 15 1.0 16 1.0 17 1.0
 15
 16
 17 18 1.0 19 1.0 20 1.0
 18
 19
 20 21 1.0 22 1.0 23 1.0
 21
 22
 23 24 1.0 25 1.0 26 1.0
 24
 25
 26 27 1.0 28 1.0 29 1.0
 27
 28
 29

