%chk=E:\hetanjin\GithubFiles\DBGCWebapp\demoForLocal\python\Gjfs\banana_005.chk
# hf/3-21g geom=connectivity

Title Card Required

0 1
 C                 -1.83673473   -1.22448978    0.00000000
 H                 -1.30357098   -2.15219470    0.00000000
 C                 -1.16146042   -0.04951248    0.00000000
 H                 -1.69462416    0.87819244    0.00000000
 C                 -3.37673473   -1.22448978    0.00000000
 H                 -3.73340107   -0.71839366   -0.87267166
 H                 -3.73340107   -2.23329367   -0.00195600
 H                 -3.73340158   -0.72178198    0.87462771
 C                  0.37853958   -0.04951248    0.00000000
 H                  0.73520593   -0.55408473   -0.87355364
 H                  0.73520593    0.95929329   -0.00019531
 H                  0.73520644   -0.55374602    0.87374899

 1 2 1.0 3 2.0 5 1.0
 2
 3 4 1.0 9 1.0
 4
 5 6 1.0 7 1.0 8 1.0
 6
 7
 8
 9 10 1.0 11 1.0 12 1.0
 10
 11
 12

