%chk=E:\hetanjin\GithubFiles\DBGCWebapp\demoForLocal\python\Gjfs\banana_068.chk
# hf/3-21g geom=connectivity

Title Card Required

0 1
 C                 -4.11564633   -0.34013605    0.00000000
 H                 -3.75899190   -1.34894605    0.00000000
 H                 -3.75897349    0.16426214   -0.87365150
 H                 -5.18564633   -0.34012287    0.00000000
 C                 -3.60230411    0.38582022    1.25740497
 H                 -3.95736067    1.39519324    1.25642758
 H                 -3.96057307   -0.11744777    2.13105517
 C                 -2.06230671    0.38336332    1.25881307
 H                 -1.70403838    0.88630461    0.38497449
 H                 -1.70725084   -0.62600950    1.26016721
 C                 -1.54896350    1.10978912    2.51594643
 H                 -1.90730031    0.60689551    3.38978438
 H                 -1.90395137    2.11918581    2.51455102
 C                 -0.00896633    1.10722893    2.51741431
 H                  0.34936962    1.61011495    1.64357164
 H                  0.34602176    0.09783234    2.51881828
 C                  0.50437691    1.83366522    3.77454161
 H                  0.14603867    1.33077993    4.64838375
 H                  0.14939050    2.84306240    3.77313689
 C                  2.04437408    1.83110283    3.77601076
 H                  2.40271148    2.33398935    2.90216898
 H                  2.39936072    0.82170572    3.77741384
 C                  2.55771732    2.55753690    5.03313933
 H                  2.19938051    2.05464905    5.90698059
 H                  2.20272946    3.56693358    5.03173727
 C                  4.09771449    2.55497670    5.03460721
 H                  4.45605045    3.05786577    4.16076631
 H                  4.45270257    1.54558010    5.03600766
 C                  4.61105772    3.28140859    6.29173706
 H                  4.25272235    2.77851820    7.16557744
 H                  5.68105576    3.27963127    6.29275606
 H                  4.25606842    4.29080476    6.29033763

 1 2 1.0 3 1.0 4 1.0 5 1.0
 2
 3
 4
 5 6 1.0 7 1.0 8 1.0
 6
 7
 8 9 1.0 10 1.0 11 1.0
 9
 10
 11 12 1.0 13 1.0 14 1.0
 12
 13
 14 15 1.0 16 1.0 17 1.0
 15
 16
 17 18 1.0 19 1.0 20 1.0
 18
 19
 20 21 1.0 22 1.0 23 1.0
 21
 22
 23 24 1.0 25 1.0 26 1.0
 24
 25
 26 27 1.0 28 1.0 29 1.0
 27
 28
 29 30 1.0 31 1.0 32 1.0
 30
 31
 32

