%chk=E:\hetanjin\GithubFiles\DBGCWebapp\demoForLocal\python\Gjfs\banana_062.chk
# hf/3-21g geom=connectivity

Title Card Required

0 1
 C                 -3.74149666   -0.51020407    0.00000000
 C                 -5.28149666   -0.51018510    0.00000000
 H                 -5.63815058    0.49862508    0.00000013
 H                 -5.63816923   -1.01458371   -0.87365137
 H                 -5.63816973   -1.01458351    0.87365128
 C                 -3.22818095   -1.96213623    0.00000000
 H                 -3.58485316   -2.46653419   -0.87365189
 H                 -2.15818095   -1.96214887    0.00000116
 H                 -3.58485449   -2.46653520    0.87365077
 C                 -3.22815444    0.21575220   -1.25740497
 H                 -3.58640537    1.22399588   -1.25838371
 H                 -2.15815621    0.21743326   -1.25642719
 H                 -3.58322908   -0.28977459   -2.13105517
 C                 -3.22815444    0.21575220    1.25740497
 H                 -3.58468667    1.22460539    1.25733014
 H                 -3.58494947   -0.28856048    2.13105595
 C                 -1.68815446    0.21554704    1.25751287
 H                 -1.33135970    0.71993855    0.38390730
 H                 -1.33162200   -0.79330608    1.25749599
 C                 -1.17481299    0.94138934    2.51498394
 H                 -1.53158667    0.43698202    3.38858899
 C                  0.36518700    0.94121766    2.51507252
 H                  0.72195983    1.44562277    1.64146584
 H                  0.72185931    1.44553858    3.38876885
 H                  0.72174139   -0.06762770    2.51504442
 C                 -1.68798440    2.39337250    2.51502777
 H                 -1.60874179    2.79974349    1.52837523
 H                 -2.71151596    2.41003977    2.82648461
 H                 -1.10009022    2.97923554    3.19033876

 1 2 1.0 6 1.0 10 1.0 14 1.0
 2 3 1.0 4 1.0 5 1.0
 3
 4
 5
 6 7 1.0 8 1.0 9 1.0
 7
 8
 9
 10 11 1.0 12 1.0 13 1.0
 11
 12
 13
 14 15 1.0 16 1.0 17 1.0
 15
 16
 17 18 1.0 19 1.0 20 1.0
 18
 19
 20 21 1.0 22 1.0 26 1.0
 21
 22 23 1.0 24 1.0 25 1.0
 23
 24
 25
 26 27 1.0 28 1.0 29 1.0
 27
 28
 29

