%chk=E:\hetanjin\GithubFiles\DBGCWebapp\demoForLocal\python\Gjfs\banana_038.chk
# hf/3-21g geom=connectivity

Title Card Required

0 1
 C                 -3.12925175    0.37414965    0.00000000
 H                 -2.77259733   -0.63466035    0.00000000
 H                 -2.77257891    0.87854784   -0.87365150
 H                 -4.19925175    0.37416284    0.00000000
 C                 -2.61590954    1.10010593    1.25740497
 H                 -2.97096610    2.10947894    1.25642758
 H                 -2.97417850    0.59683793    2.13105517
 C                 -1.07591214    1.09764903    1.25881307
 H                 -0.71764380    1.60059032    0.38497449
 C                 -0.56256892    1.82407482    2.51594643
 H                 -0.92090573    1.32118122    3.38978438
 H                 -0.91755679    2.83347151    2.51455102
 C                  0.97742825    1.82151464    2.51741431
 H                  1.33576420    2.32440065    1.64357164
 H                  1.33410180    2.32624634    3.39087288
 H                  1.33241634    0.81211804    2.51881828
 C                 -0.56489714   -0.35509317    1.26076201
 H                 -0.92166568   -0.85985063    0.38735712
 H                  0.50510115   -0.35680035    1.26162448
 C                 -1.08039989   -1.07890429    2.51851969
 H                 -1.67592947   -1.91894936    2.22771254
 H                 -0.24918402   -1.41585995    3.10199296
 H                 -1.67426004   -0.40481104    3.09974978

 1 2 1.0 3 1.0 4 1.0 5 1.0
 2
 3
 4
 5 6 1.0 7 1.0 8 1.0
 6
 7
 8 9 1.0 10 1.0 17 1.0
 9
 10 11 1.0 12 1.0 13 1.0
 11
 12
 13 14 1.0 15 1.0 16 1.0
 14
 15
 16
 17 18 1.0 19 1.0 20 1.0
 18
 19
 20 21 1.0 22 1.0 23 1.0
 21
 22
 23

