%chk=E:\hetanjin\GithubFiles\DBGCWebapp\demoForLocal\python\Gjfs\banana_039.chk
# hf/3-21g geom=connectivity

Title Card Required

0 1
 C                 -2.07482997    0.10204081    0.00000000
 C                 -3.61482997    0.10205979    0.00000000
 H                 -3.97148389    1.11086997    0.00000013
 H                 -3.97150253   -0.40233882   -0.87365137
 H                 -3.97150304   -0.40233862    0.87365128
 C                 -1.56151425   -1.34989134    0.00000000
 H                 -1.91818646   -1.85428931   -0.87365189
 H                 -0.49151425   -1.34990398    0.00000116
 H                 -1.91818779   -1.85429031    0.87365077
 C                 -1.56148775    0.82799709   -1.25740497
 H                 -1.91830195    1.83675058   -1.25750282
 H                 -0.49148776    0.82815302   -1.25730700
 H                 -1.91800086    0.32348561   -2.13105625
 C                 -1.56148775    0.82799709    1.25740497
 H                 -0.49148956    0.82629040    1.25838372
 C                 -2.07712740    0.10366682    2.51480761
 H                 -1.72717902   -0.90748675    2.51266375
 H                 -1.71537058    0.60443857    3.38845495
 H                 -3.14710160    0.11078043    2.51695365
 C                 -2.07250343    2.28073967    1.25599807
 H                 -1.71935331    2.78390078    2.13179136
 H                 -1.71072419    2.78524401    0.38451018
 H                 -3.14248902    2.28244686    1.25071516

 1 2 1.0 6 1.0 10 1.0 14 1.0
 2 3 1.0 4 1.0 5 1.0
 3
 4
 5
 6 7 1.0 8 1.0 9 1.0
 7
 8
 9
 10 11 1.0 12 1.0 13 1.0
 11
 12
 13
 14 15 1.0 16 1.0 20 1.0
 15
 16 17 1.0 18 1.0 19 1.0
 17
 18
 19
 20 21 1.0 22 1.0 23 1.0
 21
 22
 23

