%chk=E:\hetanjin\GithubFiles\DBGCWebapp\demoForLocal\python\Gjfs\banana_036.chk
# hf/3-21g geom=connectivity

Title Card Required

0 1
 C                 -3.77551027    0.03401360    0.00000000
 H                 -3.41885584   -0.97479640    0.00000000
 H                 -3.41883743    0.53841180   -0.87365150
 H                 -4.84551027    0.03402679    0.00000000
 C                 -3.26216805    0.75996988    1.25740497
 H                 -3.61722440    1.76934297    1.25642745
 H                 -3.62043716    0.25670145    2.13105486
 C                 -1.72217065    0.75751353    1.25881364
 H                 -1.36390217    1.26045541    0.38497547
 C                 -1.20882817    1.48393884    2.51594759
 H                 -1.56716498    0.98104454    3.38978513
 C                  0.33116900    1.48137943    2.51741591
 H                  0.68950495    1.98426598    1.64357355
 H                  0.68784205    1.98611096    3.39087479
 H                  0.68615760    0.47198301    2.51881957
 C                 -1.71974602    2.93671512    2.51393994
 H                 -1.66930346    3.33116255    1.52057859
 H                 -2.73356708    2.95872291    2.85538174
 H                 -1.11135570    3.52965601    3.16446460
 C                 -1.21115514   -0.69522848    1.26076201
 H                 -1.56920016   -1.19809128    2.13473728
 H                 -1.56805240   -1.20003097    0.38743573
 H                 -0.14115673   -0.69693546    1.26146676

 1 2 1.0 3 1.0 4 1.0 5 1.0
 2
 3
 4
 5 6 1.0 7 1.0 8 1.0
 6
 7
 8 9 1.0 10 1.0 20 1.0
 9
 10 11 1.0 12 1.0 16 1.0
 11
 12 13 1.0 14 1.0 15 1.0
 13
 14
 15
 16 17 1.0 18 1.0 19 1.0
 17
 18
 19
 20 21 1.0 22 1.0 23 1.0
 21
 22
 23

