%chk=E:\hetanjin\GithubFiles\DBGCWebapp\demoForLocal\python\Gjfs\banana_040.chk
# hf/3-21g geom=connectivity

Title Card Required

0 1
 C                 -3.97959191   -1.22448978    0.00000000
 H                 -3.44642816   -2.15219470    0.00000000
 H                 -5.04959191   -1.22448978    0.00000000
 C                 -3.30431760   -0.04951248    0.00000000
 H                 -3.83748134    0.87819244    0.00000000
 C                 -1.76431760   -0.04951248    0.00000000
 H                 -1.40765125   -0.55560860   -0.87267166
 H                 -1.40765074   -0.55222027    0.87462771
 C                 -1.25098472    1.40241088   -0.00281518
 H                 -1.60924809    1.90906882    0.86887575
 H                 -1.60605339    1.90455198   -0.87841815
 C                  0.28901270    1.40241724   -0.00000002
 H                  0.64727484    0.89540323   -0.87148441
 H                  0.64408123    0.90063291    0.87580750
 C                  0.80234666    2.85433895   -0.00340690
 H                  0.44408368    3.36135236    0.86807748
 H                  0.44727836    3.35612345   -0.87921443
 C                  2.34234409    2.85434532   -0.00059175
 H                  2.70060623    2.34733587   -0.87207879
 H                  2.69741262    2.35255641    0.87521315
 C                  2.85567803    4.30626705   -0.00399104
 H                  2.49742222    4.81327337    0.86750042
 H                  3.92567626    4.30627145   -0.00204386
 H                  2.50060253    4.80805867   -0.87979156

 1 2 1.0 3 1.0 4 2.0
 2
 3
 4 5 1.0 6 1.0
 5
 6 7 1.0 8 1.0 9 1.0
 7
 8
 9 10 1.0 11 1.0 12 1.0
 10
 11
 12 13 1.0 14 1.0 15 1.0
 13
 14
 15 16 1.0 17 1.0 18 1.0
 16
 17
 18 19 1.0 20 1.0 21 1.0
 19
 20
 21 22 1.0 23 1.0 24 1.0
 22
 23
 24

