%chk=E:\hetanjin\GithubFiles\DBGCWebapp\demoForLocal\python\Gjfs\banana_028.chk
# hf/3-21g geom=connectivity

Title Card Required

0 1
 C                 -2.92517012   -1.56462583    0.00000000
 H                 -2.39200637   -2.49233075    0.00000000
 H                 -3.99517012   -1.56462583    0.00000000
 C                 -2.24989581   -0.38964853    0.00000000
 H                 -2.78305956    0.53805639    0.00000000
 C                 -0.70989581   -0.38964853    0.00000000
 H                 -0.35322946   -0.89574465   -0.87267166
 H                 -0.35322895   -0.89235632    0.87462771
 C                 -0.19656294    1.06227483   -0.00281518
 H                 -0.55482630    1.56893278    0.86887575
 H                 -0.55163161    1.56441593   -0.87841815
 C                  1.34343449    1.06228119   -0.00000002
 H                  1.70169663    0.55526718   -0.87148441
 H                  1.69850302    0.56049686    0.87580750
 C                  1.85676845    2.51420290   -0.00340690
 H                  1.49850690    3.02121581    0.86807837
 H                  1.50169871    3.01598791   -0.87921356
 C                  3.39676588    2.51420926   -0.00059428
 H                  3.75502659    2.00720083   -0.87208250
 H                  3.75343297    3.52301202   -0.00295554
 H                  3.75183585    2.01241933    0.87520945

 1 2 1.0 3 1.0 4 2.0
 2
 3
 4 5 1.0 6 1.0
 5
 6 7 1.0 8 1.0 9 1.0
 7
 8
 9 10 1.0 11 1.0 12 1.0
 10
 11
 12 13 1.0 14 1.0 15 1.0
 13
 14
 15 16 1.0 17 1.0 18 1.0
 16
 17
 18 19 1.0 20 1.0 21 1.0
 19
 20
 21

