%chk=E:\hetanjin\GithubFiles\DBGCWebapp\demoForLocal\python\Gjfs\banana_013.chk
# hf/3-21g geom=connectivity

Title Card Required

0 1
 C                 -2.21088439   -0.98639454    0.00000000
 H                 -1.85421155   -0.48199635   -0.87365150
 C                 -3.75088439   -0.98637557    0.00000000
 H                 -4.10755698   -1.49246729    0.87267166
 H                 -4.10753831    0.02243272    0.00195600
 H                 -4.10755744   -1.48907897   -0.87462771
 C                 -1.69756868   -2.43832670    0.00000000
 H                 -2.05454994   -2.94283393   -0.87346255
 H                 -2.05393309   -2.94261638    0.87383998
 C                 -1.69754217   -0.26043827    1.25740497
 H                 -0.62754221   -0.26067268    1.25753237
 H                 -2.05398834    0.74844533    1.25727746
 H                 -2.05442330   -0.76468950    2.13105624
 C                 -0.15756877   -2.43834493   -0.00054315
 H                  0.19945282   -2.33989845    1.00332131
 H                  0.19893969   -3.35705553   -0.41740351
 H                  0.19890065   -1.61809345   -0.58792468

 1 2 1.0 3 1.0 7 1.0 10 1.0
 2
 3 4 1.0 5 1.0 6 1.0
 4
 5
 6
 7 8 1.0 9 1.0 14 1.0
 8
 9
 10 11 1.0 12 1.0 13 1.0
 11
 12
 13
 14 15 1.0 16 1.0 17 1.0
 15
 16
 17

