%chk=E:\hetanjin\GithubFiles\DBGCWebapp\demoForLocal\python\Gjfs\banana_041.chk
# hf/3-21g geom=connectivity

Title Card Required

0 1
 C                 -0.85034015    0.13605442    0.00000000
 H                 -1.92034015    0.13605442    0.00000000
 C                 -0.17506584    1.31103172    0.00000000
 H                  0.89493416    1.31103172    0.00000000
 C                 -0.94242301    2.64623319    0.00000000
 H                 -1.55599902    2.70497714   -0.87462771
 C                 -1.82974148    2.72834996    1.25599473
 H                 -2.08602213    3.74977895    1.44547576
 H                 -2.72255697    2.15969685    1.09974445
 H                 -1.29715854    2.33262921    2.09543532
 C                  0.06062929    3.81476995    0.00281518
 H                  0.69406955    3.74315197   -0.85655918
 H                 -0.47223677    4.74228194   -0.02317052
 H                  0.65698077    3.77078098    0.89013130
 C                 -0.08298298   -1.19914705    0.00000000
 H                  0.52519665   -1.26099179   -0.87817582
 C                 -1.08598620   -2.36765560    0.01312659
 H                 -1.73412558   -2.29089985   -0.83476721
 H                 -0.55376443   -3.29500905   -0.02756211
 H                 -1.66696017   -2.32894337    0.91082956
 C                  0.81205316   -1.27682923    1.25079006
 H                  1.64771238   -0.61906660    1.13279856
 H                  0.24765385   -0.98551758    2.11188875
 H                  1.16266876   -2.27987750    1.37673794

 1 2 1.0 3 2.0 15 1.0
 2
 3 4 1.0 5 1.0
 4
 5 6 1.0 7 1.0 11 1.0
 6
 7 8 1.0 9 1.0 10 1.0
 8
 9
 10
 11 12 1.0 13 1.0 14 1.0
 12
 13
 14
 15 16 1.0 17 1.0 21 1.0
 16
 17 18 1.0 19 1.0 20 1.0
 18
 19
 20
 21 22 1.0 23 1.0 24 1.0
 22
 23
 24

