%chk=E:\hetanjin\GithubFiles\DBGCWebapp\demoForLocal\python\Gjfs\banana_094.chk
# hf/3-21g geom=connectivity

Title Card Required

0 1
 C                 -4.69347540   -1.08843536    0.06144096
 H                 -4.16031165   -2.01614028    0.06144096
 H                 -5.76347540   -1.08843536    0.06144096
 C                 -4.01820109    0.08654194    0.06144096
 H                 -4.55136484    1.01424686    0.06144096
 C                 -2.47820109    0.08654194    0.06144096
 H                 -2.12153474   -0.41803031   -0.81211268
 H                 -2.12153424   -0.41769160    0.93518994
 C                 -1.96486822    1.53846800    0.06115986
 H                 -2.32152093    2.04303453    0.93472237
 H                 -2.32154932    2.04270682   -0.81258026
 C                 -0.42486822    1.53846799    0.06113433
 H                 -0.06821635    1.03391185   -0.81243453
 H                 -0.06818688    1.03421834    0.93486810
 C                  0.08846466    2.99039406    0.06087150
 H                 -0.26821681    3.49464346   -0.81286236
 H                 -0.26818770    3.49495001    0.93444027
 C                  1.62846466    2.99039405    0.06084635
 H                  1.98511674    2.48583974   -0.81272348
 H                  1.98514578    2.48614257    0.93457915
 C                  2.14179753    4.44232011    0.06058668
 H                  1.78672851    4.94600116   -0.81413122
 H                  1.78353452    4.94744344    0.93316793
 C                  3.68179496    4.44232153    0.06340223
 H                  4.04005719    3.93672297   -0.80890406
 H                  4.03686314    3.93911587    0.93839404
 C                  4.19512928    5.89424672    0.06235272
 H                  3.83686354    6.39984561    0.93465738
 H                  3.84006399    6.39745160   -0.81264070
 C                  5.73512670    5.89424814    0.06517297
 H                  6.09339158    5.38863659   -0.80712471
 H                  6.09019220    5.39105551    0.94017335
 C                  6.24846105    7.34617331    0.06410339
 H                  5.89020538    7.85178071    0.93640725
 H                  5.89338571    7.84936967   -0.81089085
 C                  7.78845850    7.34617471    0.06690590
 H                  8.14671333    6.84056568   -0.80539737
 H                  8.14353408    6.84297952    0.94190073
 C                  8.30179286    8.79809987    0.06583464
 H                  7.94354150    9.30370677    0.93814056
 H                  9.37179110    8.79810083    0.06777655
 H                  7.94671320    9.30129674   -0.80915756

 1 2 1.0 3 1.0 4 2.0
 2
 3
 4 5 1.0 6 1.0
 5
 6 7 1.0 8 1.0 9 1.0
 7
 8
 9 10 1.0 11 1.0 12 1.0
 10
 11
 12 13 1.0 14 1.0 15 1.0
 13
 14
 15 16 1.0 17 1.0 18 1.0
 16
 17
 18 19 1.0 20 1.0 21 1.0
 19
 20
 21 22 1.0 23 1.0 24 1.0
 22
 23
 24 25 1.0 26 1.0 27 1.0
 25
 26
 27 28 1.0 29 1.0 30 1.0
 28
 29
 30 31 1.0 32 1.0 33 1.0
 31
 32
 33 34 1.0 35 1.0 36 1.0
 34
 35
 36 37 1.0 38 1.0 39 1.0
 37
 38
 39 40 1.0 41 1.0 42 1.0
 40
 41
 42

