%chk=E:\hetanjin\GithubFiles\DBGCWebapp\demoForLocal\python\Gjfs\banana_029.chk
# hf/3-21g geom=connectivity

Title Card Required

0 1
 C                 -1.70068030   -1.39455780    0.00000000
 H                 -1.16751655   -2.32226272    0.00000000
 C                 -1.02540599   -0.21958051    0.00000000
 H                 -1.55856974    0.70812441   -0.00000000
 C                 -3.24068030   -1.39455780    0.00000000
 H                 -3.59734665   -0.88998555   -0.87355364
 H                 -3.59734665   -2.40336357   -0.00019531
 H                 -3.59734716   -0.89032426    0.87374899
 C                  0.51459401   -0.21958051    0.00000000
 H                  0.87126036   -0.72415276   -0.87355364
 H                  0.87126086   -0.72381405    0.87374899
 C                  1.02792688    1.23234555   -0.00028110
 H                  0.67110023    1.73697356    0.87317486
 H                  0.67141973    1.73652285   -0.87412771
 C                  2.56792686    1.23234562   -0.00000000
 H                  2.92475266    0.72768175   -0.87343559
 H                  2.92443423    0.72820375    0.87386696
 C                  3.08125974    2.68427166   -0.00033970
 H                  2.72443597    3.18893391    0.87309765
 H                  4.15125972    2.68427170   -0.00014792
 H                  2.72474972    3.18841471   -0.87420490

 1 2 1.0 3 2.0 5 1.0
 2
 3 4 1.0 9 1.0
 4
 5 6 1.0 7 1.0 8 1.0
 6
 7
 8
 9 10 1.0 11 1.0 12 1.0
 10
 11
 12 13 1.0 14 1.0 15 1.0
 13
 14
 15 16 1.0 17 1.0 18 1.0
 16
 17
 18 19 1.0 20 1.0 21 1.0
 19
 20
 21

