%chk=E:\hetanjin\GithubFiles\DBGCWebapp\demoForLocal\python\Gjfs\banana_049.chk
# hf/3-21g geom=connectivity

Title Card Required

0 1
 C                 -1.70068030    0.03401360    0.00000000
 H                 -1.34400746    0.53841180   -0.87365150
 C                 -1.18733808    0.75996988    1.25740497
 H                 -1.54239443    1.76934297    1.25642745
 C                 -1.70297774    0.03563961    2.51480761
 H                 -1.34822878   -0.97384172    2.51559568
 H                 -1.34599792    0.53981993    3.38845950
 H                 -2.77297551    0.03767241    2.51401717
 C                  0.35265931    0.75751353    1.25881364
 H                  0.71092791    1.26056068    0.38503611
 H                  0.70933212    1.26213246    2.13233768
 H                  0.70771566   -0.25185929    1.26004589
 C                 -3.24068030    0.03403258    0.00000000
 H                 -3.59735675   -0.78598790    0.58757835
 H                 -3.59733583    0.95290698    0.41637324
 C                 -3.75401493   -0.10822411   -1.44493965
 H                 -3.33066289   -0.98476732   -1.88917502
 H                 -4.82073717   -0.19161482   -1.43789287
 H                 -3.46731212    0.75286919   -2.01170223
 C                 -1.18736459   -1.41791855    0.00000000
 H                 -1.70879925   -1.98056659    0.74594441
 H                 -0.13925655   -1.42567141    0.21519626
 C                 -1.43206491   -2.04889924   -1.38332394
 H                 -0.69143115   -2.79835387   -1.56954792
 H                 -2.40432686   -2.49515410   -1.40484830
 H                 -1.37045570   -1.29159817   -2.13671587

 1 2 1.0 3 1.0 13 1.0 20 1.0
 2
 3 4 1.0 5 1.0 9 1.0
 4
 5 6 1.0 7 1.0 8 1.0
 6
 7
 8
 9 10 1.0 11 1.0 12 1.0
 10
 11
 12
 13 14 1.0 15 1.0 16 1.0
 14
 15
 16 17 1.0 18 1.0 19 1.0
 17
 18
 19
 20 21 1.0 22 1.0 23 1.0
 21
 22
 23 24 1.0 25 1.0 26 1.0
 24
 25
 26

