%chk=E:\hetanjin\GithubFiles\DBGCWebapp\demoForLocal\python\Gjfs\banana_022.chk
# hf/3-21g geom=connectivity

Title Card Required

0 1
 C                 -2.38095242   -1.02040815    0.00000000
 H                 -3.45095242   -1.02040815    0.00000000
 C                 -1.70567811    0.15456915    0.00000000
 H                 -0.63567811    0.15456915    0.00000000
 C                 -2.47303528    1.48977062    0.00000000
 H                 -1.77610933    2.30167603    0.00195600
 H                 -3.08661129    1.54851457   -0.87462771
 C                 -3.36035375    1.57188740    1.25599473
 H                 -3.61663441    2.59331638    1.44547576
 H                 -4.25316924    1.00323428    1.09974445
 H                 -2.82777081    1.17616664    2.09543532
 C                 -1.61359525   -2.35560962    0.00000000
 H                 -2.31047732   -3.16748981    0.01029299
 H                 -1.00630095   -2.41796316   -0.87875233
 C                 -0.71729899   -2.43256759    1.24993219
 H                 -0.38058198   -3.43905720    1.38594804
 H                  0.12729745   -1.78793491    1.12341905
 H                 -1.27586142   -2.12418140    2.10888851

 1 2 1.0 3 2.0 12 1.0
 2
 3 4 1.0 5 1.0
 4
 5 6 1.0 7 1.0 8 1.0
 6
 7
 8 9 1.0 10 1.0 11 1.0
 9
 10
 11
 12 13 1.0 14 1.0 15 1.0
 13
 14
 15 16 1.0 17 1.0 18 1.0
 16
 17
 18

