%chk=E:\hetanjin\GithubFiles\DBGCWebapp\demoForLocal\python\Gjfs\banana_020.chk
# hf/3-21g geom=connectivity

Title Card Required

0 1
 C                  0.20408164   -0.85034012    0.00000000
 H                  0.73724538   -1.77804504    0.00000000
 H                 -0.86591836   -0.85034012    0.00000000
 C                  0.87935594    0.32463717    0.00000000
 H                  0.34619220    1.25234209    0.00000000
 C                  2.41935594    0.32463717    0.00000000
 H                  2.77602229   -0.17959657    0.87374908
 H                  2.77602280   -0.17993487   -0.87355355
 C                  2.93268882    1.77656323   -0.00028147
 H                  2.57603467    2.28113050    0.87328003
 H                  2.57600915    2.28080132   -0.87402260
 C                  4.47268882    1.77656323   -0.00030447
 H                  4.82934212    1.27200607   -0.87387215
 H                  4.82936872    1.27231459    0.87343048
 C                  4.98602169    3.22848929   -0.00056814
 H                  6.05601991    3.22849028    0.00138812
 H                  4.63095267    3.73216793   -0.87528742
 H                  4.62775868    3.73361502    0.87201172

 1 2 1.0 3 1.0 4 2.0
 2
 3
 4 5 1.0 6 1.0
 5
 6 7 1.0 8 1.0 9 1.0
 7
 8
 9 10 1.0 11 1.0 12 1.0
 10
 11
 12 13 1.0 14 1.0 15 1.0
 13
 14
 15 16 1.0 17 1.0 18 1.0
 16
 17
 18

