%chk=E:\hetanjin\GithubFiles\DBGCWebapp\demoForLocal\python\Gjfs\banana_084.chk
# hf/3-21g geom=connectivity

Title Card Required

0 1
 C                 -4.08163272   -0.88435373    0.00000000
 H                 -3.72497830   -1.89316373    0.00000000
 H                 -3.72495988   -0.37995554   -0.87365150
 H                 -5.15163272   -0.88434054    0.00000000
 C                 -3.56829050   -0.15839745    1.25740497
 H                 -3.92494514    0.85041247    1.25740510
 H                 -3.92496320   -0.66279611    2.13105626
 C                 -2.02829051   -0.15841663    1.25740459
 H                 -1.67163672   -1.16722496    1.25936086
 H                 -1.67161760    0.34428642    0.38277663
 C                 -1.51494826    0.56997744    2.51339895
 H                 -1.87198639    0.06753245    3.38802619
 H                 -1.87123733    1.57891417    2.51121874
 C                  0.02505160    0.56940181    2.51372134
 H                  0.38208888    1.07182914    1.63908361
 H                  0.38134091   -0.43953480    2.51592171
 C                  0.53839386    1.29782079    3.76970124
 H                  0.18135286    0.79539519    4.64433845
 H                  0.18210767    2.30675850    3.76749925
 C                  2.07839372    1.29724077    3.77002618
 H                  2.43543388    1.79967218    2.89539197
 H                  2.43468015    0.28830313    3.77222125
 C                  2.59173598    2.02565096    5.02601118
 H                  2.23469641    1.52321823    5.90064487
 H                  2.23544834    3.03458818    5.02381713
 C                  4.13173583    2.02507314    5.02633484
 H                  4.66489351    1.55934481    4.22400074
 C                  4.81398677    2.61240461    6.03932174
 H                  4.28658716    3.05976913    6.85578645
 H                  5.88373016    2.62882480    6.02260483

 1 2 1.0 3 1.0 4 1.0 5 1.0
 2
 3
 4
 5 6 1.0 7 1.0 8 1.0
 6
 7
 8 9 1.0 10 1.0 11 1.0
 9
 10
 11 12 1.0 13 1.0 14 1.0
 12
 13
 14 15 1.0 16 1.0 17 1.0
 15
 16
 17 18 1.0 19 1.0 20 1.0
 18
 19
 20 21 1.0 22 1.0 23 1.0
 21
 22
 23 24 1.0 25 1.0 26 1.0
 24
 25
 26 27 1.0 28 2.0
 27
 28 29 1.0 30 1.0
 29
 30

