%chk=E:\hetanjin\GithubFiles\DBGCWebapp\demoForLocal\python\Gjfs\banana_024.chk
# hf/3-21g geom=connectivity

Title Card Required

0 1
 C                 -4.28571436   -1.36054420    0.00000000
 H                 -3.92905993   -2.36935420    0.00000000
 H                 -3.92904152   -0.85614601   -0.87365150
 H                 -5.35571436   -1.36053101    0.00000000
 C                 -3.77237214   -0.63458792    1.25740497
 H                 -4.12742870    0.37478509    1.25642758
 C                 -2.23237474   -0.63704483    1.25881307
 H                 -1.87410641   -0.13410354    0.38497449
 H                 -1.87731887   -1.64641765    1.26016721
 C                 -1.71903153    0.08938097    2.51594643
 H                 -2.07736834   -0.41351264    3.38978438
 H                 -2.07401940    1.09877766    2.51455102
 C                 -0.17903436    0.08682079    2.51741431
 H                  0.17930159    0.58970680    1.64357164
 H                  0.17763919    0.59155249    3.39087288
 H                  0.17595373   -0.92257581    2.51881828
 C                 -4.28801158   -1.35891757    2.51480806
 H                 -3.68156070   -2.21983168    2.70439767
 H                 -4.23883967   -0.69629356    3.35350440
 H                 -5.30190323   -1.66389526    2.36017193

 1 2 1.0 3 1.0 4 1.0 5 1.0
 2
 3
 4
 5 6 1.0 7 1.0 17 1.0
 6
 7 8 1.0 9 1.0 10 1.0
 8
 9
 10 11 1.0 12 1.0 13 1.0
 11
 12
 13 14 1.0 15 1.0 16 1.0
 14
 15
 16
 17 18 1.0 19 1.0 20 1.0
 18
 19
 20

