%nprocshared=12
%mem=30GB
# opt freq b3lyp/6-311++g(d,p)

Title Card Required

0 1
 C                 -3.16082794   -1.14639855   -0.01500718
 H                 -2.80417352   -2.15520855   -0.01500718
 H                 -2.80415510   -0.64200036   -0.88865868
 H                 -4.23082794   -1.14638537   -0.01500718
 C                 -2.64748573   -0.42044228    1.24239779
 H                 -3.00412434    0.58837332    1.24238811
 H                 -3.00417438   -0.92483019    2.11604877
 C                 -1.10748573   -0.42048504    1.24241193
 H                 -0.75079735    0.08390088    0.36875969
 H                 -0.75084689   -1.42930055    1.24242323
 C                 -0.59414424    0.30547359    2.49981583
 H                 -0.95083310   -0.19891289    3.37346756
 H                 -0.95078321    1.31428906    2.49980489
 C                  0.94585576    0.30543138    2.49982966
 H                  1.30254378    0.80981870    1.62617807
 H                  1.30249496   -0.70338401    2.49983942
 C                  1.45919725    1.03138836    3.75723451
 H                  1.10250839    0.52700074    4.63088557
 H                  2.52919725    1.03135903    3.75724412
 H                  1.10255828    2.04020383    3.75722489

