%mem=28GB
%nprocshared=12
%chk=C6H14_1_00_1_opt_B3L.chk
#p B3LYP/6-31G(d) opt freq

using B3LYP/6-31G(d) to do opt and freq calc.

0 1
C	1.414252	2.905068	0.000000
H	0.900511	3.301495	0.884598
H	0.900511	3.301495	-0.884598
H	2.434263	3.306290	0.000000
C	1.414252	1.372949	0.000000
H	1.965397	1.006856	-0.878004
H	1.965397	1.006856	0.878004
C	0.004876	0.766911	0.000000
H	-0.546821	1.134116	-0.878485
H	-0.546821	1.134116	0.878485
C	-0.004876	-0.766911	0.000000
H	0.546821	-1.134116	0.878485
H	0.546821	-1.134116	-0.878485
C	-1.414252	-1.372949	0.000000
H	-1.965397	-1.006856	-0.878004
H	-1.965397	-1.006856	0.878004
C	-1.414252	-2.905068	0.000000
H	-0.900511	-3.301495	0.884598
H	-2.434263	-3.306290	0.000000
H	-0.900511	-3.301495	-0.884598






