%mem=15GB
%nprocshared=6
#p PM6 opt 

using PM6 to do opt and freq calc.

0 1
C    0.75    -0.2653    -1.4299
H    0.7904    0.7113    -1.9651
H    -0.0134    -0.906    -1.9262
H    1.7377    -0.7682    -1.5476
C    0.4165    -0.0552    0.064
C    -0.8832    0.7841    0.2434
H    -0.7377    1.7869    -0.2235
H    -1.0613    0.9533    1.3316
C    -2.1742    0.1997    -0.3394
H    -2.419    -0.7782    0.1307
H    -3.016    0.8999    -0.1357
H    -2.0929    0.0713    -1.4414
C    0.3    -1.4288    0.7617
H    0.015    -1.3037    1.8317
H    -0.466    -2.0677    0.2671
H    1.2701    -1.9762    0.7213
C    1.5824    0.7234    0.7169
H    2.5419    0.1647    0.6183
H    1.7134    1.7192    0.2334
H    1.3902    0.8874    1.8025





