%mem=15GB
%nprocshared=6
#p M062X/def2TZVP

using B3LYP/6-31G(d) to do opt and freq calc.

0 2
C	-2.597667	-0.176212	-0.319886
H	-2.642058	0.092685	-1.372211
H	-3.535347	-0.217393	0.225074
C	-1.327981	-0.684955	0.275520
H	-1.382250	-0.637752	1.373481
H	-1.209896	-1.759914	0.037389
C	-0.053751	0.049893	-0.205309
H	-0.054859	0.018540	-1.307145
C	1.208405	-0.688810	0.281134
H	1.117992	-1.750055	0.009489
H	1.237507	-0.658856	1.380747
C	2.529439	-0.148348	-0.278323
H	2.724962	0.878858	0.048077
H	3.374275	-0.763271	0.052570
H	2.525700	-0.153468	-1.375665
C	-0.075024	1.522980	0.228678
H	-0.998082	2.013091	-0.099797
H	-0.026952	1.605258	1.323018
H	0.768482	2.084986	-0.185913





