%mem=28GB
%nprocshared=12
%chk=C6H14_5_1_opt_PM6.chk
#p B3LYP/6-31G(d) opt freq

using B3LYP/6-31G(d) to do opt and freq calc.

0 1
C	1.642393	0.957677	-0.002960
H	1.644336	1.605902	0.878295
H	1.643931	1.600967	-0.887825
H	2.586667	0.404348	-0.001634
C	0.431759	-0.001550	-0.000003
C	-0.862933	0.856177	-0.001757
H	-0.850942	1.523054	-0.885653
H	-0.850906	1.526626	0.879431
C	-2.157469	0.048040	-0.000117
H	-2.231362	-0.595858	0.883640
H	-3.031433	0.708936	0.000920
H	-2.233517	-0.595938	-0.883621
C	0.494272	-0.889881	-1.256335
H	-0.325789	-1.614801	-1.273968
H	0.425725	-0.294023	-2.171404
H	1.430531	-1.454603	-1.299311
C	0.495149	-0.883201	1.260982
H	1.430990	-1.448468	1.305790
H	0.428267	-0.282415	2.172951
H	-0.325525	-1.607305	1.283528






