%mem=15GB
%nprocshared=6
#p B3LYP/6-31G(d) opt=tight int=ultrafine freq 

using B3LYP/6-31G(d) to do opt and freq calc.

0 2
C    0.00001000    1.51842900    1.25475900 
H    0.34914800    1.04207000    2.17586600 
H    0.46230200    2.51126600    1.20422200 
C    0.34297000    0.69665100    -0.00000600 
H    1.43140900    0.52249300    -0.00001500 
C    -0.34297000    -0.69665100    -0.00000600 
H    -1.43140900    -0.52249300    -0.00001500 
C    0.00001000    -1.51844700    -1.25475400 
H    1.08502400    -1.66473200    -1.34292800 
H    -0.46227300    -2.51128800    -1.20420400 
H    -0.34912700    -1.04210900    -2.17587300 
C    -0.00001000    1.51844700    -1.25475400 
H    0.34912700    1.04210900    -2.17587300 
H    -1.08502400    1.66473200    -1.34292800 
H    0.46227300    2.51128800    -1.20420400 
C    -0.00001000    -1.51842900    1.25475900 
H    1.08500300    -1.66472300    1.34294400 
H    -0.34914800    -1.04207000    2.17586600 
H    -0.46230200    -2.51126600    1.20422200 





