%mem=15GB
%nprocshared=6
#p PM6 opt 

using PM6 to do opt and freq calc.

0 1
C    1.8859    1.891    -0.7928
H    1.0292    2.5899    -0.6651
H    1.9165    1.5352    -1.8477
H    2.8257    2.4481    -0.5775
C    1.7664    0.7074    0.1665
H    2.7027    0.1076    0.087
H    1.6963    1.0888    1.2115
C    0.5799    -0.2228    -0.1261
H    0.6789    -1.1108    0.5412
H    0.6432    -0.5812    -1.1802
C    -0.793    0.4213    0.1165
H    -0.9408    1.2584    -0.604
H    -0.8267    0.8339    1.1519
C    -1.9369    -0.5852    -0.0596
H    -1.81    -1.4245    0.6632
H    -1.9097    -1.0032    -1.0928
C    -3.305    0.0512    0.1721
H    -3.4778    0.8749    -0.5576
H    -4.1007    -0.7162    0.0384
H    -3.3727    0.4588    1.2065





