%mem=15GB
%nprocshared=6
#p PM6 opt 

using PM6 to do opt and freq calc.

0 1
 C                 -3.97292983    0.85987260    0.00000000
 H                 -3.61627541   -0.14893740    0.00000000
 H                 -3.61625699    1.36427079   -0.87365150
 H                 -5.04292983    0.85988578    0.00000000
 C                 -3.45958762    1.58582887    1.25740497
 H                 -3.81785658    1.08256087    2.13105517
 C                 -1.91959022    1.58337197    1.25881307
 H                 -1.56132188    2.08631326    0.38497449
 C                 -1.40624700    2.30979777    2.51594643
 H                 -1.76458381    1.80690416    3.38978438
 H                 -0.33624897    2.30801894    2.51696632
 H                 -1.76123487    3.31919445    2.51455102
 C                 -3.97060360    3.03857134    1.25599826
 H                 -3.92935273    3.43213352    2.25013466
 H                 -3.35628051    3.63213055    0.61164229
 H                 -4.98123401    3.06082253    0.90524042
 C                 -1.40857522    0.13062978    1.26076201
 H                 -2.02104255   -0.46203237    1.90770510
 H                 -1.45268777   -0.26430923    0.26729472
 H                 -0.39693959    0.10885855    1.60864038





