%mem=28GB
%nprocshared=12
%chk=C6H14_5_r010_C13_2_opt_B3L.chk
#p B3LYP/6-31G(d) opt freq

using B3LYP/6-31G(d) to do opt and freq calc.

0 2
C	1.638634	-0.784498	-0.553069
H	1.628778	-0.725601	-1.649790
H	1.600627	-1.842943	-0.270596
H	2.592069	-0.375437	-0.200150
C	0.438499	-0.001621	0.049118
C	-0.869132	-0.647848	-0.488022
H	-0.870104	-1.706599	-0.191686
H	-0.834024	-0.640552	-1.586695
C	-2.175141	0.001296	-0.016756
H	-2.276168	1.029126	-0.382298
H	-3.040562	-0.562673	-0.383383
H	-2.231785	0.030382	1.077433
C	0.494825	-0.103397	1.546597
H	0.178148	-1.014849	2.047762
H	1.040360	0.627738	2.136854
C	0.549095	1.474109	-0.387602
H	1.505425	1.901999	-0.063131
H	0.496263	1.565077	-1.479585
H	-0.249712	2.086086	0.043670






