%mem=28GB
%nprocshared=12
%chk=C6H14_5_r006_C9_2_opt_B3L.chk
#p B3LYP/6-31G(d) opt freq

using B3LYP/6-31G(d) to do opt and freq calc.

0 2
C	-1.597665	-0.000005	0.950895
H	-1.590235	0.886343	1.597586
H	-1.590233	-0.886358	1.597579
H	-2.544019	-0.000004	0.395927
C	-0.395433	0.000000	-0.010346
C	0.917710	-0.000002	0.850122
H	0.876711	-0.881908	1.506177
H	0.876711	0.881900	1.506182
C	2.203159	0.000000	0.094503
H	2.667496	0.926371	-0.228947
H	2.667497	-0.926370	-0.228951
C	-0.446349	-1.258782	-0.894254
H	0.393766	-1.285742	-1.597385
H	-0.406680	-2.171909	-0.286708
H	-1.374256	-1.288070	-1.478728
C	-0.446352	1.258790	-0.894244
H	-1.374259	1.288081	-1.478717
H	-0.406684	2.171912	-0.286690
H	0.393763	1.285756	-1.597375






