%mem=15GB
%nprocshared=6
#p B3LYP/6-31G(d) opt=tight int=ultrafine

using B3LYP/6-31G(d) to do opt and freq calc.

0 1
C	-2.962525	0.522803	0.121774
H	-2.806755	1.557807	-0.202966
H	-3.069286	0.534872	1.212379
H	-3.917212	0.187129	-0.297939
C	-1.815611	-0.383496	-0.320584
H	-2.023019	-1.426288	-0.010594
H	-1.760061	-0.402573	-1.426557
C	-0.471349	0.076441	0.260963
H	-0.527607	0.099475	1.365940
H	-0.264430	1.118762	-0.049378
C	0.677974	-0.836942	-0.185212
H	0.735967	-0.856035	-1.290531
H	0.465048	-1.879272	0.122360
C	2.031422	-0.405324	0.398270
H	2.758500	-1.232818	0.276682
H	1.937076	-0.247720	1.490590
C	2.586391	0.856919	-0.258360
H	1.908343	1.708373	-0.128550
H	3.553485	1.136655	0.173103
H	2.732142	0.719227	-1.335642





