%mem=28GB
%nprocshared=12
%chk=C6H14_1_07_1_opt_PM6.chk
#p B3LYP/6-31G(d) opt freq

using B3LYP/6-31G(d) to do opt and freq calc.

0 1
C	-2.445841	0.847685	0.282129
H	-2.300899	1.657891	-0.441278
H	-1.914978	1.131601	1.198115
H	-3.514074	0.803540	0.519866
C	-1.944251	-0.487478	-0.264087
H	-2.143413	-1.290713	0.472021
H	-2.527705	-0.757449	-1.166777
C	-0.450781	-0.464406	-0.620816
H	-0.227093	0.422487	-1.244675
H	-0.212532	-1.342176	-1.252243
C	0.450780	-0.464403	0.620817
H	0.212531	-1.342168	1.252250
H	0.227093	0.422494	1.244671
C	1.944250	-0.487478	0.264088
H	2.143411	-1.290715	-0.472018
H	2.527704	-0.757448	1.166778
C	2.445842	0.847684	-0.282131
H	2.300913	1.657889	0.441280
H	3.514073	0.803534	-0.519879
H	1.914971	1.131604	-1.198110






