%mem=28GB
%nprocshared=12
%chk=C6H14_4_00_1_opt_PM6.chk
#p B3LYP/6-31G(d) opt freq

using B3LYP/6-31G(d) to do opt and freq calc.

0 1
C	-1.502015	1.252488	0.056688
H	-1.013483	2.167671	-0.293956
H	-1.619601	1.334980	1.142261
H	-2.506074	1.232116	-0.380201
C	-0.703201	0.000030	-0.332395
H	-0.565437	0.000145	-1.441156
C	0.703201	-0.000042	0.332395
H	0.565437	-0.000171	1.441156
C	1.502036	-1.252484	-0.056704
H	1.619610	-1.334969	-1.142279
H	2.506101	-1.232092	0.380171
H	1.013530	-2.167679	0.293943
C	-1.502037	-1.252494	0.056431
H	-1.013534	-2.167615	-0.294418
H	-1.619608	-1.335221	1.141988
H	-2.506103	-1.232006	-0.380437
C	1.502016	1.252498	-0.056415
H	1.619603	1.335230	-1.141969
H	1.013486	2.167607	0.294428
H	2.506075	1.232032	0.380470






