#p b3lyp/6-31g(d) opt freq

this is the .gjf file generated from Forg output which is used to save the coordinate of different coformers

0 1
C    1.1777    2.6623    0.6642
H    1.4686    1.6744    1.0868
H    0.4971    3.1812    1.3768
H    2.0994    3.2748    0.5406
C    0.4979    2.4884    -0.6932
H    0.3345    3.5014    -1.1288
H    1.1824    1.9331    -1.3755
C    -0.8594    1.7726    -0.6306
H    -1.2914    1.7841    -1.6584
H    -1.5422    2.3512    0.0336
C    -0.7763    0.3167    -0.1418
H    -0.5343    0.3012    0.9461
H    0.0506    -0.1992    -0.6833
C    -2.0585    -0.495    -0.3776
H    -1.8654    -1.5459    -0.0601
H    -2.2974    -0.5089    -1.4662
C    -3.2741    0.0156    0.3948
H    -3.5788    1.021    0.0268
H    -4.1274    -0.6844    0.2463
H    -3.0468    0.0755    1.4833






