#p b3lyp/6-31g(d) opt freq

this is the .gjf file generated from Forg output which is used to save the coordinate of different coformers

0 1
C    0.4609    -2.5393    1.6021
H    0.5694    -1.9177    2.5203
H    1.4198    -2.5102    1.0352
H    0.2655    -3.589    1.9201
C    -0.6968    -2.0178    0.7377
H    -1.6187    -2.0911    1.36
C    -0.4612    -0.5335    0.3704
H    0.4881    -0.4534    -0.2095
H    -0.323    0.0507    1.3107
C    -1.5652    0.1584    -0.4478
H    -1.6636    -0.3241    -1.4465
H    -1.2484    1.2128    -0.6227
C    -2.9312    0.188    0.2359
H    -2.8461    0.6253    1.2566
H    -3.6316    0.8131    -0.363
H    -3.3558    -0.8382    0.309
C    -0.8833    -2.9179    -0.4933
H    -1.8102    -2.6413    -1.0436
H    -0.0125    -2.8263    -1.1819
H    -0.9842    -3.9833    -0.1837






