%mem=15GB
%nprocshared=6
#p M062X/def2TZVP

using B3LYP/6-31G(d) to do opt and freq calc.

0 2
C	-2.536243	-0.286886	-0.309851
H	-2.497699	-0.359386	-1.404141
H	-2.804174	0.744256	-0.054726
H	-3.352620	-0.931720	0.035291
C	-1.204542	-0.710616	0.319532
H	-1.268415	-0.615107	1.413728
H	-1.036125	-1.776602	0.117203
C	0.030942	0.073886	-0.175211
H	0.058613	0.001534	-1.275661
C	1.296773	-0.530562	0.361153
H	1.284770	-0.899901	1.386580
C	2.620756	-0.332631	-0.300543
H	3.076224	0.644963	-0.056489
H	3.345684	-1.096191	0.006364
H	2.534297	-0.367520	-1.395175
C	-0.058815	1.580705	0.175745
H	-0.934283	2.052873	-0.284834
H	-0.128870	1.721392	1.261643
H	0.829367	2.118032	-0.174734





