%mem=28GB
%nprocshared=12
%chk=C6H14_2_r014_C1.chk
#p B3LYP/6-31G(d) opt freq

using B3LYP/6-31G(d) to do opt and freq calc.

0 2
C    2.15879700    -1.03826200    0.03329400 
H    1.92753300    -2.02922200    -0.37555400 
H    3.14006800    -0.73640000    -0.35208900 
C    1.07512900    -0.01324700    -0.33394300 
H    1.02737300    0.04491900    -1.43284400 
C    -0.30520800    -0.48286400    0.16709800 
H    -0.29364500    -0.51580100    1.26792500 
H    -0.46137400    -1.52057900    -0.16343600 
C    -1.49862100    0.36099100    -0.30192300 
H    -1.48122300    0.43272600    -1.39912900 
H    -1.40332200    1.38840300    0.07251200 
C    -2.84619200    -0.21322100    0.14909800 
H    -2.90621300    -0.27061800    1.24305300 
H    -3.68182700    0.40554200    -0.19768900 
H    -2.99673100    -1.22688900    -0.24256100 
C    1.45203800    1.37933700    0.19490400 
H    0.73689000    2.14756100    -0.11799800 
H    1.48756100    1.38271000    1.29264300 
H    2.44124600    1.68200400    -0.16891200 






