%mem=15GB
%nprocshared=6
#p B3LYP/6-31G(d) opt=tight int=ultrafine

using B3LYP/6-31G(d) to do opt and freq calc.

0 1
C	-2.749844	-0.473397	0.080495
H	-2.876429	-0.625833	1.158188
H	-2.359463	-1.408746	-0.336623
H	-3.744010	-0.310237	-0.349293
C	-1.819788	0.701852	-0.213824
H	-1.746360	0.855166	-1.308298
H	-2.265521	1.632772	0.189636
C	-0.416708	0.518218	0.382683
H	-0.496133	0.224479	1.446819
H	0.111739	1.491623	0.379373
C	0.416708	-0.518221	-0.382677
H	0.496129	-0.224485	-1.446813
H	-0.111737	-1.491628	-0.379361
C	1.819790	-0.701851	0.213827
H	2.265523	-1.632772	-0.189632
H	1.746367	-0.855159	1.308301
C	2.749843	0.473399	-0.080502
H	2.359451	1.408753	0.336594
H	3.744005	0.310252	0.349300
H	2.876441	0.625816	-1.158196





