%mem=15GB
%nprocshared=6
#p B3LYP/6-31G(d) opt=tight int=ultrafine

using B3LYP/6-31G(d) to do opt and freq calc.

0 1
C	-2.531559	-0.223926	-0.368539
H	-2.465624	-0.441027	-1.440606
H	-2.721151	0.850625	-0.263311
H	-3.408883	-0.751695	0.021333
C	-1.262996	-0.645170	0.369354
H	-1.373849	-0.442825	1.451735
H	-1.138394	-1.742289	0.279970
C	-0.000023	0.064384	-0.168961
H	-0.000107	-0.014618	-1.283874
C	1.262950	-0.645285	0.369255
H	1.138340	-1.742380	0.279689
H	1.373761	-0.443152	1.451689
C	2.531573	-0.223909	-0.368493
H	2.722736	0.850094	-0.260618
H	3.408441	-0.753930	0.019351
H	2.464588	-0.438151	-1.441075
C	0.000050	1.550081	0.211012
H	-0.883474	2.060898	-0.186430
H	0.000059	1.690567	1.296853
H	0.883581	2.060832	-0.186479





