%mem=28GB
%nprocshared=12
%chk=C6H14_2_2_opt_B3L.chk
#p B3LYP/6-31G(d) opt freq

using B3LYP/6-31G(d) to do opt and freq calc.

0 1
C	2.158797	-1.038262	0.033294
H	1.927533	-2.029222	-0.375554
H	2.248004	-1.140761	1.122907
H	3.140068	-0.736400	-0.352089
C	1.075129	-0.013247	-0.333943
H	1.027373	0.044919	-1.432844
C	-0.305208	-0.482864	0.167098
H	-0.293645	-0.515801	1.267925
H	-0.461374	-1.520579	-0.163436
C	-1.498621	0.360991	-0.301923
H	-1.481223	0.432726	-1.399129
H	-1.403322	1.388403	0.072512
C	-2.846192	-0.213221	0.149098
H	-2.906213	-0.270618	1.243053
H	-3.681827	0.405542	-0.197689
H	-2.996731	-1.226889	-0.242561
C	1.452038	1.379337	0.194904
H	0.736890	2.147561	-0.117998
H	1.487561	1.382710	1.292643
H	2.441246	1.682004	-0.168912






