%mem=28GB
%nprocshared=12
%chk=C6H14_5_2_opt_B3L.chk
#p B3LYP/6-31G(d) opt freq

using B3LYP/6-31G(d) to do opt and freq calc.

0 1
C	1.618032	0.989661	-0.000046
H	1.593672	1.636429	0.885962
H	1.593672	1.636347	-0.886113
H	2.578316	0.459293	-0.000021
C	0.436353	-0.000500	0.000000
C	-0.878586	0.823914	-0.000030
H	-0.865713	1.486486	-0.877558
H	-0.865712	1.486551	0.877447
C	-2.193477	0.033880	-0.000001
H	-2.289029	-0.605019	0.884964
H	-3.048488	0.719808	-0.000012
H	-2.289041	-0.605062	-0.884933
C	0.528897	-0.885012	-1.258652
H	-0.262439	-1.642476	-1.285245
H	0.448512	-0.282917	-2.172624
H	1.489696	-1.413344	-1.292039
C	0.528906	-0.884904	1.258727
H	1.489700	-1.413241	1.292148
H	0.448537	-0.282728	2.172647
H	-0.262436	-1.642360	1.285396






