%mem=15GB
%nprocshared=6
#p M062X/def2TZVP

using B3LYP/6-31G(d) to do opt and freq calc.

0 2
C	-2.529439	-0.148341	-0.278318
H	-2.525706	-0.153449	-1.375660
H	-2.724955	0.878863	0.048095
H	-3.374274	-0.763264	0.052574
C	-1.208404	-0.688815	0.281126
H	-1.237503	-0.658876	1.380740
H	-1.117997	-1.750057	0.009468
C	0.053750	0.049890	-0.205312
H	0.054862	0.018543	-1.307148
C	1.327981	-0.684961	0.275516
H	1.209903	-1.759916	0.037367
H	1.382242	-0.637770	1.373477
C	2.597668	-0.176200	-0.319879
H	3.535354	-0.217412	0.225069
H	2.642052	0.092728	-1.372197
C	0.075023	1.522974	0.228682
H	-0.768485	2.084982	-0.185905
H	0.026951	1.605248	1.323023
H	0.998080	2.013088	-0.099793





