%mem=15GB
%nprocshared=6
#p M062X/def2TZVP

using B3LYP/6-31G(d) to do opt and freq calc.

0 1
C	-2.585432	-0.173063	-0.291849
H	-2.569458	-0.210592	-1.388477
H	-2.798673	0.860561	0.001587
H	-3.426358	-0.788597	0.047878
C	-1.264298	-0.681121	0.297502
H	-1.305088	-0.618252	1.395357
H	-1.161923	-1.749281	0.059899
C	0.000001	0.051166	-0.198829
H	0.000003	0.001388	-1.300329
C	1.264300	-0.681115	0.297508
H	1.161927	-1.749278	0.059916
H	1.305092	-0.618234	1.395362
C	2.585433	-0.173062	-0.291851
H	2.798671	0.860567	0.001568
H	3.426361	-0.788588	0.047886
H	2.569459	-0.210609	-1.388479
C	-0.000004	1.533363	0.207287
H	-0.880930	2.058937	-0.175897
H	-0.000012	1.636037	1.301012
H	0.880926	2.058939	-0.175885





