%mem=15GB
%nprocshared=6
#p PM6 opt 

using PM6 to do opt and freq calc.

0 1
C    0.0191    4.134    -1.2017
H    -0.8479    4.6744    -0.758
H    -0.1596    3.9886    -2.2914
H    0.9325    4.7572    -1.07
C    0.215    2.7874    -0.51
H    1.1153    2.2933    -0.9438
H    0.4012    2.969    0.5741
C    -1.0019    1.8689    -0.6764
H    -1.1611    1.6698    -1.762
H    -1.9014    2.3907    -0.2757
C    -0.82    0.535    0.0629
H    -0.7526    0.7244    1.1597
H    0.142    0.0742    -0.2622
C    -1.9338    -0.487    -0.2077
H    -1.6537    -1.4426    0.2934
H    -2.0019    -0.6859    -1.3023
C    -3.309    -0.0696    0.3119
H    -3.692    0.8101    -0.2522
H    -4.0267    -0.9101    0.1761
H    -3.256    0.1825    1.3954





