%mem=15GB
%nprocshared=6
#p B3LYP/6-31G(d) opt=tight int=ultrafine freq 

using B3LYP/6-31G(d) to do opt and freq calc.

0 2
C    1.61803200    0.98966100    -0.00004600 
H    1.59367200    1.63642900    0.88596200 
H    1.59367200    1.63634700    -0.88611300 
H    2.57831600    0.45929300    -0.00002100 
C    0.43635300    -0.00050000    0.00000000 
C    -0.87858600    0.82391400    -0.00003000 
H    -0.86571300    1.48648600    -0.87755800 
H    -0.86571200    1.48655100    0.87744700 
C    -2.19347700    0.03388000    -0.00000100 
H    -2.28902900    -0.60501900    0.88496400 
H    -2.28904100    -0.60506200    -0.88493300 
C    0.52889700    -0.88501200    -1.25865200 
H    -0.26243900    -1.64247600    -1.28524500 
H    0.44851200    -0.28291700    -2.17262400 
H    1.48969600    -1.41334400    -1.29203900 
C    0.52890600    -0.88490400    1.25872700 
H    1.48970000    -1.41324100    1.29214800 
H    0.44853700    -0.28272800    2.17264700 
H    -0.26243600    -1.64236000    1.28539600 





