%mem=15GB
%nprocshared=6
#p B3LYP/6-31G(d) opt=tight int=ultrafine

using B3LYP/6-31G(d) to do opt and freq calc.

0 1
C	-2.226757	-0.871700	-0.216164
H	-1.746743	-1.799572	0.117723
H	-2.286274	-0.911014	-1.309726
H	-3.251939	-0.874187	0.169852
C	-1.460995	0.360169	0.260533
H	-1.984689	1.272449	-0.086596
H	-1.477743	0.410862	1.365811
C	-0.000668	0.384268	-0.244295
H	-0.000469	0.141740	-1.335285
C	0.850254	-0.672345	0.492667
H	0.277956	-1.619091	0.564133
H	1.027170	-0.350439	1.536425
C	2.183799	-0.940458	-0.200882
H	2.799168	-0.035051	-0.255617
H	2.763089	-1.698985	0.336867
H	2.040169	-1.300812	-1.225687
C	0.588439	1.789814	-0.062784
H	0.029916	2.535642	-0.637324
H	0.576242	2.102297	0.986549
H	1.629715	1.827672	-0.401573





