%mem=15GB
%nprocshared=6
#p B3LYP/6-31G(d) opt=tight int=ultrafine freq 

using B3LYP/6-31G(d) to do opt and freq calc.

0 2
C    -1.41422700    2.90508300    0.00000000 
H    -0.90049700    3.30149900    -0.88460200 
H    -2.43423600    3.30628200    0.00000000 
C    -1.41422700    1.37295400    0.00000000 
H    -1.96539800    1.00688300    0.87799500 
H    -1.96539800    1.00688300    -0.87799500 
C    -0.00489300    0.76691800    0.00000000 
H    0.54682700    1.13410000    0.87847700 
H    0.54682700    1.13410000    -0.87847700 
C    0.00489300    -0.76691800    0.00000000 
H    -0.54682700    -1.13410000    -0.87847700 
H    -0.54682700    -1.13410000    0.87847700 
C    1.41422700    -1.37295400    0.00000000 
H    1.96539800    -1.00688300    0.87799500 
H    1.96539800    -1.00688300    -0.87799500 
C    1.41422700    -2.90508300    0.00000000 
H    0.90049700    -3.30149900    -0.88460200 
H    2.43423600    -3.30628200    0.00000000 
H    0.90049700    -3.30149900    0.88460200 





