%mem=15GB
%nprocshared=6
#p PM6 opt 

using PM6 to do opt and freq calc.

0 1
C    2.1578    -0.3186    0.559
H    2.0694    -1.4101    0.7632
H    2.1672    0.2274    1.5304
H    3.1292    -0.1451    0.0418
C    0.991    0.158    -0.3192
H    1.0414    -0.4177    -1.2735
C    -0.3585    -0.1537    0.3666
H    -0.4404    0.4329    1.3118
H    -0.3709    -1.2364    0.6359
C    -1.5916    0.1269    -0.5063
H    -1.4775    -0.3812    -1.4917
H    -1.6894    1.2223    -0.6816
C    -2.8829    -0.3617    0.1457
H    -3.0303    0.1325    1.1329
H    -3.7485    -0.1149    -0.5099
H    -2.8503    -1.4656    0.2907
C    1.1619    1.6473    -0.6581
H    0.4094    1.967    -1.4129
H    1.0464    2.274    0.2557
H    2.1703    1.8331    -1.0936





