%mem=15GB
%nprocshared=6
#p B3LYP/6-31G(d) opt=tight int=ultrafine

using B3LYP/6-31G(d) to do opt and freq calc.

0 1
C	2.119935	-0.611814	-0.540273
H	2.196568	0.230282	-1.237776
H	1.615916	-1.428610	-1.068430
H	3.138381	-0.945595	-0.313239
C	1.375063	-0.217453	0.732392
H	1.323993	-1.089934	1.413151
H	1.960952	0.550688	1.275136
C	-0.054187	0.322170	0.498108
H	-0.491797	0.533150	1.507575
C	-0.942453	-0.732442	-0.195499
H	-0.725423	-1.733187	0.226380
H	-0.679568	-0.796283	-1.268752
C	-2.432321	-0.432466	-0.045851
H	-2.694382	0.536152	-0.486820
H	-3.040372	-1.195165	-0.544585
H	-2.735881	-0.406021	1.006575
C	-0.030976	1.638716	-0.287573
H	0.592738	2.388724	0.209114
H	0.366607	1.498336	-1.298574
H	-1.038101	2.057203	-0.387589





